 vasp.5.4.4.18Apr17-6-g9f103f2a35 (build Feb 24 2022 11:29:53) complex

 executed on             LinuxIFC date 2023.12.16  17:58:01

 INCAR:
 POTCAR:    PAW_PBE V 08Apr2002
 POTCAR:    PAW_PBE Ni 02Aug2007
 POTCAR:    PAW_PBE Na 08Apr2002
 POTCAR:    PAW_PBE O 08Apr2002
 POTCAR:    PAW_PBE F 08Apr2002

   TITEL  = PAW_PBE V 08Apr2002
   POMASS =   50.941; ZVAL   =    5.000    mass and valenz
   ENMAX  =  192.543; ENMIN  =  144.408 eV

   TITEL  = PAW_PBE Ni 02Aug2007
   POMASS =   58.690; ZVAL   =   10.000    mass and valenz
   ENMAX  =  269.532; ENMIN  =  202.149 eV

[...]

   TITEL  = PAW_PBE F 08Apr2002
   POMASS =   18.998; ZVAL   =    7.000    mass and valenz
   ENMAX  =  400.000; ENMIN  =  300.000 eV

  PAW_PBE V 08Apr2002                   :
  PAW_PBE Ni 02Aug2007                  :
  PAW_PBE Na 08Apr2002                  :
  PAW_PBE O 08Apr2002                   :
  PAW_PBE F 08Apr2002                   :

 POSCAR: Na0.67V0.5Ni0.5O1.925F0.15 (3*3*1 super
  positions in direct lattice
  velocities in cartesian coordinates
 exchange correlation table for  LEXCH =        8
   RHO(1)=    0.500       N(1)  =     2000
   RHO(2)=  100.500       N(2)  =     4000

 ion  position               nearest neighbor table
   1  0.993  0.995  0.005-  62 1.82  34 1.95  46 1.99  39 2.01  42 2.03  31 2.03  17 2.86  13 2.87
                             3 2.93   5 2.97   7 3.11   9 3.11  19 3.16  20 3.20  21 3.20
   2  0.986  0.004  0.509-  32 1.78  33 1.81  40 1.87  44 1.93  49 2.02  45 2.11  14 2.79   6 2.95
                            18 2.95  10 2.97   4 2.99  21 3.10  20 3.20  19 3.35
   3  0.989  0.326  0.004-  55 1.82  34 1.93  38 1.98  50 2.02  35 2.04  31 2.05  15 2.85  13 2.87
                             1 2.93   5 2.94  11 3.05   9 3.08  20 3.20  24 3.22  23 3.25  22 3.26
   4  0.002  0.351  0.498-  53 1.81  48 1.82  37 1.86  36 1.87  49 2.05  32 2.13  12 2.85   6 2.87
                            16 2.93  10 2.99   2 2.99  14 3.07  23 3.16  22 3.23  20 3.29  24 3.30
   5  0.014  0.671  0.984-  42 1.88  54 1.90  35 1.91  38 1.96  39 2.01  66 2.17  11 2.87  29 2.88
                             7 2.90   3 2.94   1 2.97  15 3.03  17 3.08  23 3.13  21 3.17
   6  0.995  0.673  0.506-  41 1.81  52 1.92  40 1.97  45 1.98  36 2.07  53 2.10  29 2.82   4 2.87
                            18 2.94  16 2.95   2 2.95   8 3.03  12 3.07  21 3.26  23 3.30
   7  0.347  0.998  0.000-  51 1.78  58 1.91  54 2.03  43 2.03  39 2.05  46 2.07  13 2.81  11 2.85
                            15 2.86   5 2.90   9 3.07   1 3.11  25 3.20  21 3.24  26 3.26  19 3.26
   8  0.351  0.004  0.490-  57 1.76  56 1.80  60 1.80  45 2.04  52 2.07  44 2.11  14 2.79  16 2.82
                            12 2.96  10 2.98   6 3.03  19 3.15  25 3.16  26 3.33  21 3.37
   9  0.350  0.347  0.007-  61 1.79  47 1.79  43 1.89  50 1.91  46 2.06  31 2.09  17 2.81  15 2.88
                            11 2.90  28 2.91   7 3.07   3 3.08   1 3.11  19 3.25  22 3.27
  10  0.333  0.333  0.491-  64 1.86  59 1.87  44 1.98  49 1.98  60 2.09  48 2.11  28 2.74  18 2.86
                            12 2.88  16 2.88   2 2.97   8 2.98   4 2.99  19 3.19  22 3.22
  11  0.340  0.671  0.999-  65 1.94  35 2.07  50 2.09  51 2.09  47 2.12  54 2.13  17 2.85   7 2.85
                            13 2.85   5 2.87   9 2.90   3 3.05  22 3.11  23 3.15  26 3.16
  12  0.339  0.662  0.501-  63 1.95  64 2.00  48 2.09  57 2.10  53 2.12  52 2.15  18 2.78   4 2.85
                            14 2.86  10 2.88   8 2.96   6 3.07  22 3.09  23 3.18  26 3.19
  13  0.666  0.996  0.995-  65 1.96  34 2.06  58 2.06  51 2.10  55 2.12  62 2.15   7 2.81  17 2.85
                            11 2.85   3 2.87   1 2.87  15 2.93  26 3.09  24 3.14  20 3.24  25 3.29
  14  0.662  0.991  0.503-  63 1.93  37 2.02  33 2.10  56 2.10  32 2.10  57 2.11   2 2.79   8 2.79
                            12 2.86  18 2.87  16 3.03   4 3.07  26 3.11  20 3.19  24 3.23  25 3.30
  15  0.667  0.329  0.991-  58 1.97  38 2.06  61 2.07  55 2.09  43 2.10  66 2.12   3 2.85   7 2.86
                             9 2.88  13 2.93   5 3.03  17 3.03  24 3.08  25 3.15
  16  0.662  0.335  0.503-  59 1.96  41 2.08  56 2.09  37 2.10  60 2.10  36 2.11   8 2.82  10 2.88
                            18 2.92   4 2.93   6 2.95  14 3.03  25 3.18  24 3.20
  17  0.664  0.671  0.997-  65 1.91  62 2.04  42 2.06  61 2.07  47 2.10  66 2.11  30 2.71   9 2.81
                            27 2.82  11 2.85  13 2.85   1 2.86  15 3.03   5 3.08
  18  0.655  0.662  0.503-  63 1.96  59 1.99  64 2.02  41 2.09  33 2.12  40 2.19  30 2.69  27 2.69
                            12 2.78  10 2.86  14 2.87  16 2.92   6 2.94   2 2.95
  19  0.217  0.100  0.250-  60 2.28  31 2.33  45 2.34  43 2.37  39 2.38  49 2.47  20 2.98  25 3.00
                             8 3.15   1 3.16  10 3.19  29 3.22   9 3.25  22 3.25   7 3.26   2 3.35
  20  0.878  0.102  0.252-  33 2.26  62 2.31  55 2.32  49 2.37  37 2.38  31 2.41  25 2.83  19 2.98
                            14 3.19   3 3.20   1 3.20  22 3.20   2 3.20  13 3.24   4 3.29  27 3.41
  21  0.118  0.917  0.750-  40 2.28  44 2.32  46 2.33  54 2.34  42 2.39  52 2.44  28 3.04   2 3.10
                            26 3.17   5 3.17   1 3.20   7 3.24   6 3.26  23 3.28   8 3.37  30 3.40
  22  0.232  0.476  0.250-  64 2.25  47 2.26  53 2.31  35 2.38  31 2.52  49 2.56  12 3.09  11 3.11
                            29 3.15  20 3.20  27 3.21  10 3.22   4 3.23  19 3.25   3 3.26   9 3.27
  23  0.127  0.549  0.751-  48 2.26  38 2.34  36 2.36  54 2.37  50 2.40  52 2.46  26 2.92  24 3.03
                             5 3.13  11 3.15   4 3.16  12 3.18   3 3.25  21 3.28  28 3.29   6 3.30
  24  0.768  0.218  0.752-  58 2.30  36 2.36  38 2.37  34 2.44  56 2.46  32 2.48  26 2.84  23 3.03
                            15 3.08  13 3.14  16 3.20   3 3.22  14 3.23   4 3.30
  25  0.575  0.137  0.247-  60 2.28  55 2.32  43 2.37  51 2.40  37 2.44  57 2.48  20 2.83  19 3.00
                            15 3.15   8 3.16  16 3.18   7 3.20  13 3.29  14 3.30
  26  0.460  0.882  0.750-  63 2.26  65 2.27  56 2.34  54 2.37  58 2.37  52 2.52  24 2.84  23 2.92
                            13 3.09  14 3.11  30 3.12  11 3.16  21 3.17  12 3.19   7 3.26   8 3.33
  27  0.654  0.655  0.256-  64 2.31  47 2.32  41 2.43  66 2.43  62 2.47  33 2.48  18 2.69  17 2.82
                            29 3.13  22 3.21  20 3.41
  28  0.324  0.316  0.742-  59 2.32  44 2.33  61 2.37  48 2.40  46 2.43  50 2.51  10 2.74   9 2.91
                            21 3.04  30 3.14  23 3.29
  29  0.022  0.678  0.248-  35 2.30  39 2.30  53 2.33  45 2.40  66 2.40  41 2.44   6 2.82   5 2.88
                            27 3.13  22 3.15  19 3.22
  30  0.670  0.683  0.749-  63 2.29  65 2.33  40 2.39  42 2.41  61 2.53  59 2.59  18 2.69  17 2.71
                            26 3.12  28 3.14  21 3.40
  31  0.113  0.221  0.104-   1 2.03   3 2.05   9 2.09  19 2.33  20 2.41  22 2.52
  32  0.902  0.112  0.600-   2 1.78  14 2.10   4 2.13  24 2.48
  33  0.803  0.899  0.403-   2 1.81  14 2.10  18 2.12  20 2.26  27 2.48
  34  0.904  0.118  0.905-   3 1.93   1 1.95  13 2.06  24 2.44
  35  0.103  0.562  0.092-   5 1.91   3 2.04  11 2.07  29 2.30  22 2.38
  36  0.900  0.441  0.603-   4 1.87   6 2.07  16 2.11  24 2.36  23 2.36
  37  0.792  0.223  0.413-   4 1.86  14 2.02  16 2.10  20 2.38  25 2.44
  38  0.902  0.448  0.897-   5 1.96   3 1.98  15 2.06  23 2.34  24 2.37
  39  0.113  0.883  0.093-   5 2.01   1 2.01   7 2.05  29 2.30  19 2.38
  40  0.905  0.799  0.603-   2 1.87   6 1.97  18 2.19  21 2.28  30 2.39
  41  0.800  0.571  0.409-   6 1.81  16 2.08  18 2.09  27 2.43  29 2.44
  42  0.898  0.773  0.903-   5 1.88   1 2.03  17 2.06  21 2.39  30 2.41
  43  0.437  0.223  0.097-   9 1.89   7 2.03  15 2.10  25 2.37  19 2.37
  44  0.218  0.110  0.584-   2 1.93  10 1.98   8 2.11  21 2.32  28 2.33
  45  0.110  0.892  0.408-   6 1.98   8 2.04   2 2.11  19 2.34  29 2.40
  46  0.220  0.113  0.914-   1 1.99   9 2.06   7 2.07  21 2.33  28 2.43
  47  0.437  0.535  0.105-   9 1.79  17 2.10  11 2.12  22 2.26  27 2.32
  48  0.195  0.425  0.596-   4 1.82  12 2.09  10 2.11  23 2.26  28 2.40
  49  0.104  0.222  0.403-  10 1.98   2 2.02   4 2.05  20 2.37  19 2.47  22 2.56
  50  0.219  0.427  0.913-   9 1.91   3 2.02  11 2.09  23 2.40  28 2.51
  51  0.438  0.903  0.101-   7 1.78  11 2.09  13 2.10  25 2.40
  52  0.212  0.781  0.596-   6 1.92   8 2.07  12 2.15  21 2.44  23 2.46  26 2.52
  53  0.097  0.545  0.403-   4 1.81   6 2.10  12 2.12  22 2.31  29 2.33
  54  0.223  0.786  0.889-   5 1.90   7 2.03  11 2.13  21 2.34  23 2.37  26 2.37
  55  0.793  0.229  0.100-   3 1.82  15 2.09  13 2.12  20 2.32  25 2.32
  56  0.530  0.096  0.598-   8 1.80  16 2.09  14 2.10  26 2.34  24 2.46
  57  0.430  0.894  0.398-   8 1.76  12 2.10  14 2.11  25 2.48
  58  0.548  0.109  0.896-   7 1.91  15 1.97  13 2.06  24 2.30  26 2.37
  59  0.535  0.432  0.590-  10 1.87  16 1.96  18 1.99  28 2.32  30 2.59
  60  0.432  0.198  0.395-   8 1.80  10 2.09  16 2.10  19 2.28  25 2.28
  61  0.532  0.436  0.904-   9 1.79  17 2.07  15 2.07  28 2.37  30 2.53
  62  0.798  0.892  0.102-   1 1.82  17 2.04  13 2.15  20 2.31  27 2.47
  63  0.555  0.778  0.598-  14 1.93  12 1.95  18 1.96  26 2.26  30 2.29
  64  0.433  0.539  0.400-  10 1.86  12 2.00  18 2.02  22 2.25  27 2.31
  65  0.554  0.775  0.904-  17 1.91  11 1.94  13 1.96  26 2.27  30 2.33
  66  0.784  0.557  0.102-  17 2.11  15 2.12   5 2.17  29 2.40  27 2.43

IMPORTANT INFORMATION: All symmetrisations will be switched off!
NOSYMM: (Re-)initialisation of all symmetry stuff for point group C_1.

 KPOINTS: Automatic mesh

Automatic generation of k-mesh.
Space group operators:
 irot       det(A)        alpha          n_x          n_y          n_z        tau_x        tau_y        tau_z
    1     1.000000     0.000001     1.000000     0.000000     0.000000     0.000000     0.000000     0.000000

 Subroutine IBZKPT returns following result:

 Found     64 irreducible k-points:

 Following reciprocal coordinates:
            Coordinates               Weight
  0.000000  0.000000  0.000000      1.000000
  0.250000  0.000000  0.000000      1.000000
  0.500000  0.000000  0.000000      1.000000
 -0.250000 -0.000000 -0.000000      1.000000
 -0.000000  0.250000 -0.000000      1.000000
  0.250000  0.250000  0.000000      1.000000
  0.500000  0.250000  0.000000      1.000000
 -0.250000  0.250000 -0.000000      1.000000
 -0.000000  0.500000 -0.000000      1.000000
  0.250000  0.500000  0.000000      1.000000
  0.500000  0.500000  0.000000      1.000000
 -0.250000  0.500000  0.000000      1.000000
  0.000000 -0.250000  0.000000      1.000000
  0.250000 -0.250000  0.000000      1.000000
  0.500000 -0.250000  0.000000      1.000000
 -0.250000 -0.250000 -0.000000      1.000000
  0.000000  0.000000  0.250000      1.000000
  0.250000  0.000000  0.250000      1.000000
  0.500000  0.000000  0.250000      1.000000
 -0.250000  0.000000  0.250000      1.000000
 -0.000000  0.250000  0.250000      1.000000
  0.250000  0.250000  0.250000      1.000000
  0.500000  0.250000  0.250000      1.000000
 -0.250000  0.250000  0.250000      1.000000
 -0.000000  0.500000  0.250000      1.000000
  0.250000  0.500000  0.250000      1.000000
[...]
  E(xc)   -1822.91636 -1822.67955 -1828.21512     0.29890    -0.99303    -0.55722
  Local  -12113.06256-12376.43928 10924.26556   128.51378   -56.46759     5.79016
  n-local  -874.66322  -877.81916  -885.77463     1.50704    -4.28985     4.15579
  augment  2005.36237  2008.03049  2028.53846    -5.66488     6.64312    -5.80496
  Kinetic  5795.07652  5801.00092  5872.26753    -3.51427    10.01449    -4.43423
  Fock        0.00000     0.00000     0.00000     0.00000     0.00000     0.00000
  Total      -7.76741    -5.64231    -8.06744     1.62302    -1.47644     1.72523
  in kB     -17.04061   -12.37844   -17.69884     3.56068    -3.23910     3.78491

 VOLUME and BASIS-vectors are now :
  energy-cutoff  :      400.00
  volume of cell :      730.30
      direct lattice vectors                 reciprocal lattice vectors
     8.784787923 -0.020749086 -0.036330464     0.113990251  0.065908825  0.000347590
    -4.409983943  7.626961201  0.032009152     0.000309093  0.131293567 -0.000245233
    -0.045132124  0.020493375 10.914937319     0.000378511 -0.000165654  0.091619443

  length of vectors
     8.784887551  8.810194103 10.915049865     0.131673350  0.131294160  0.091620375

 FORCES acting on ions:
    Electron-Ion                     Ewald-Force                    Non-Local-Force
   -.563E+02 -.287E+02 0.619E+01   0.563E+02 0.292E+02 -.639E+01   0.428E+00 -.270E+00 -.974E-01
   -.518E+02 0.116E+00 -.121E+02   0.530E+02 -.235E+00 0.118E+02   -.485E+00 0.179E+00 -.116E-01
   -.437E+02 -.184E+02 -.858E+01   0.440E+02 0.181E+02 0.814E+01   0.262E+00 0.715E+00 0.306E+00
   0.114E+02 0.207E+02 0.711E+01   -.115E+02 -.218E+02 -.725E+01   0.439E-01 0.455E-01 -.882E-01
   0.508E+00 -.146E+02 0.254E+02   0.434E-02 0.149E+02 -.261E+02   -.995E+00 -.575E+00 0.974E+00
   -.244E+02 -.119E+02 -.212E+02   0.240E+02 0.128E+02 0.214E+02   0.699E+00 -.101E+01 0.842E-01
   0.838E+02 -.471E+01 0.463E+01   -.836E+02 0.538E+01 -.499E+01   -.822E+00 -.175E+00 0.139E-01
   0.710E+02 0.436E+02 0.311E+01   -.724E+02 -.439E+02 -.246E+01   0.293E+00 -.363E+00 0.957E-01
   0.484E+02 0.807E+02 -.104E+02   -.489E+02 -.816E+02 0.105E+02   0.372E-01 0.413E-01 -.149E-01
   0.561E+02 0.122E+03 0.352E+02   -.540E+02 -.119E+03 -.355E+02   -.188E+01 -.328E+01 0.216E+00
   0.112E+03 0.553E+02 -.308E+02   -.108E+03 -.537E+02 0.286E+02   -.369E+01 -.170E+01 0.231E+01
   0.157E+03 -.157E+02 0.341E+01   -.150E+03 0.166E+02 -.234E+01   -.652E+01 -.776E+00 -.113E+01
   -.371E+02 -.664E+02 -.135E+02   0.364E+02 0.634E+02 0.999E+01   0.792E+00 0.309E+01 0.370E+01
   -.157E+02 -.737E+02 0.152E+02   0.158E+02 0.704E+02 -.131E+02   -.105E+00 0.340E+01 -.212E+01
   -.106E+02 -.216E+02 0.354E+02   0.109E+02 0.177E+02 -.387E+02   -.414E+00 0.414E+01 0.343E+01
   -.891E+02 -.853E+01 -.385E+01   0.861E+02 0.105E+02 0.560E+01   0.300E+01 -.193E+01 -.174E+01
   -.840E+02 0.605E+01 0.463E+01   0.795E+02 -.222E+01 -.825E+01   0.468E+01 -.395E+01 0.375E+01
   -.137E+03 -.581E+02 0.165E+01   0.132E+03 0.555E+02 0.334E+00   0.571E+01 0.261E+01 -.202E+01
   0.276E+01 0.546E+01 0.621E+01   -.255E+01 -.538E+01 -.623E+01   -.295E+00 -.118E+00 -.116E-01
   -.138E+01 -.240E+01 0.416E+01   0.151E+01 0.223E+01 -.407E+01   -.188E+00 0.204E+00 -.885E-01
   0.663E+00 -.334E+01 -.375E+01   -.787E+00 0.321E+01 0.364E+01   0.114E+00 0.177E+00 0.123E+00
   0.788E+01 0.216E+01 0.696E+01   -.729E+01 -.183E+01 -.674E+01   -.739E+00 -.347E+00 -.301E+00
   0.135E+01 0.615E+00 -.290E+01   -.157E+01 -.872E+00 0.282E+01   0.278E+00 0.317E+00 0.127E+00
   -.388E+01 -.167E+01 0.157E+01   0.368E+01 0.187E+01 -.112E+01   0.240E+00 -.243E+00 -.593E+00
   -.163E+01 -.494E+00 0.121E+01   0.137E+01 0.531E+00 -.133E+01   0.380E+00 -.269E-01 0.132E+00
   0.596E+01 -.122E+01 -.885E+00   -.538E+01 0.109E+01 0.959E+00   -.723E+00 0.184E+00 -.101E+00
   -.329E+01 -.327E+01 0.530E+01   0.285E+01 0.304E+01 -.493E+01   0.530E+00 0.320E+00 -.484E+00
   0.338E+01 0.608E+01 -.143E+02   -.308E+01 -.601E+01 0.139E+02   -.360E+00 -.119E+00 0.653E+00
   -.166E+01 -.263E+01 -.825E+00   0.190E+01 0.270E+01 0.670E+00   -.291E+00 -.102E+00 0.190E+00
   -.735E+01 0.153E+01 -.342E+01   0.673E+01 -.104E+01 0.329E+01   0.813E+00 -.639E+00 0.170E+00
   -.823E+01 0.120E+02 -.213E+03   0.943E+01 -.109E+02 0.225E+03   -.119E+01 -.113E+01 -.126E+02
   -.330E+02 -.432E+02 -.298E+03   0.270E+02 0.468E+02 0.316E+03   0.597E+01 -.360E+01 -.184E+02
   -.581E+02 -.253E+02 0.321E+03   0.535E+02 0.199E+02 -.336E+03   0.454E+01 0.534E+01 0.152E+02
   -.815E+02 -.367E+02 0.266E+03   0.807E+02 0.342E+02 -.285E+03   0.801E+00 0.243E+01 0.188E+02
   0.356E+02 0.252E+02 -.257E+03   -.322E+02 -.251E+02 0.271E+03   -.334E+01 -.161E+00 -.147E+02
   -.204E+02 -.390E+02 -.284E+03   0.134E+02 0.397E+02 0.300E+03   0.710E+01 -.660E+00 -.165E+02
   -.346E+02 -.390E+02 0.299E+03   0.298E+02 0.372E+02 -.312E+03   0.474E+01 0.185E+01 0.126E+02
   -.493E+02 -.310E+02 0.266E+03   0.452E+02 0.293E+02 -.282E+03   0.411E+01 0.162E+01 0.156E+02
   -.125E+01 -.175E+02 -.220E+03   0.213E+01 0.176E+02 0.235E+03   -.832E+00 -.177E+00 -.148E+02
   -.657E+02 -.698E+01 -.281E+03   0.615E+02 0.222E+01 0.297E+03   0.417E+01 0.473E+01 -.158E+02
   -.703E+02 -.307E+02 0.299E+03   0.645E+02 0.264E+02 -.313E+03   0.583E+01 0.431E+01 0.143E+02
   -.624E+02 -.503E+02 0.266E+03   0.570E+02 0.499E+02 -.281E+03   0.537E+01 0.362E+00 0.151E+02
   0.500E+02 0.531E+02 -.258E+03   -.457E+02 -.523E+02 0.273E+03   -.428E+01 -.803E+00 -.151E+02
   -.110E+01 0.951E+02 -.285E+03   0.512E+01 -.936E+02 0.297E+03   -.406E+01 -.192E+01 -.120E+02
   0.382E+01 0.128E+02 0.240E+03   -.596E+01 -.104E+02 -.254E+03   0.216E+01 -.236E+01 0.140E+02
   0.199E+02 0.160E+02 0.213E+03   -.195E+02 -.148E+02 -.226E+03   -.378E+00 -.123E+01 0.130E+02
   0.264E+02 0.451E+02 -.309E+03   -.269E+02 -.370E+02 0.325E+03   0.486E+00 -.809E+01 -.156E+02
   0.545E+02 0.330E+02 -.330E+03   -.471E+02 -.317E+02 0.344E+03   -.707E+01 -.127E+01 -.142E+02
   0.639E+02 0.545E+02 0.290E+03   -.628E+02 -.537E+02 -.303E+03   -.156E+01 -.104E+01 0.130E+02
   0.324E+02 0.755E+02 0.247E+03   -.343E+02 -.732E+02 -.261E+03   0.200E+01 -.226E+01 0.145E+02
   0.548E+02 -.120E+02 -.317E+03   -.480E+02 0.621E+01 0.336E+03   -.681E+01 0.569E+01 -.184E+02
   0.610E+02 -.187E+02 -.257E+03   -.563E+02 0.189E+02 0.269E+03   -.467E+01 -.277E+00 -.125E+02
   0.658E+02 -.172E+02 0.285E+03   -.643E+02 0.251E+02 -.301E+03   -.148E+01 -.792E+01 0.161E+02
   0.620E+02 -.257E+02 0.258E+03   -.565E+02 0.267E+02 -.273E+03   -.559E+01 -.101E+01 0.148E+02
   -.437E+02 -.276E+02 -.302E+03   0.371E+02 0.251E+02 0.317E+03   0.661E+01 0.244E+01 -.143E+02
   0.357E+02 0.924E+01 -.321E+03   -.314E+02 -.451E+01 0.339E+03   -.430E+01 -.475E+01 -.172E+02
   0.503E+02 0.106E+01 0.333E+03   -.429E+02 -.909E+01 -.351E+03   -.744E+01 0.809E+01 0.182E+02
   0.638E+02 0.183E+02 0.307E+03   -.621E+02 -.168E+02 -.322E+03   -.171E+01 -.158E+01 0.156E+02
   -.433E+02 0.680E+01 -.386E+03   0.455E+02 -.574E+01 0.400E+03   -.180E+01 -.108E+01 -.143E+02
   -.675E+00 0.488E+02 0.330E+03   -.309E+00 -.388E+02 -.345E+03   0.789E+00 -.972E+01 0.146E+02
   0.256E+02 0.437E+02 0.309E+03   -.183E+02 -.406E+02 -.326E+03   -.735E+01 -.312E+01 0.176E+02
   -.556E+02 -.473E+02 -.305E+03   0.494E+02 0.440E+02 0.320E+03   0.626E+01 0.329E+01 -.147E+02
   0.152E+01 -.151E+02 -.376E+03   -.929E+00 0.143E+02 0.390E+03   -.612E+00 0.791E+00 -.140E+02
   0.118E+02 -.297E+02 0.396E+03   -.109E+02 0.330E+02 -.409E+03   -.102E+01 -.306E+01 0.128E+02
   0.326E+01 -.379E+01 0.352E+03   -.371E+01 0.434E+01 -.367E+03   0.421E+00 -.535E+00 0.147E+02
   -.835E+02 -.283E+02 -.329E+03   0.827E+02 0.252E+02 0.341E+03   0.865E+00 0.309E+01 -.125E+02
   0.248E+01 0.139E+02 -.105E+02   0.185E-12 -.888E-13 -.284E-12   -.249E+01 -.139E+02 0.106E+02

 POSITION                                       TOTAL-FORCE (eV/Angst)
      4.32997      7.57208      0.04710         0.010496      0.046178     -0.021370
      8.62445      0.01844      5.52495         0.000618     -0.046067      0.029033
      7.25237      2.46797      0.02279         0.011870      0.006394     -0.024850
     -1.54910      2.68603      5.45100        -0.227978     -0.185572     -0.242689
     -2.88271      5.13754     10.76481        -0.134644     -0.108901     -0.033098
      5.74839      5.12403      5.50464        -0.043374     -0.002739      0.035040
     -1.35023      7.60288      0.02362         0.105120      0.274683     -0.010709
      3.04557      0.03293      5.33285        -0.017354     -0.234701      0.229635
      1.54007      2.63898      0.07239        -0.018339     -0.003585      0.015833
      1.43174      2.54382      5.36128         0.352758      0.517363     -0.089491
     -0.01657      5.13142     10.91720         0.006477     -0.001501      0.037623
      0.03429      5.05557      5.47587        -0.027655      0.058696     -0.031382
      1.41175      7.60210     10.86416         0.014886      0.017532      0.042496
      1.42462      7.55668      5.49457         0.020763     -0.019466      0.026178
      4.36270      2.51246     10.80164        -0.064047      0.010231      0.015935
      4.31319      2.54837      5.47301        -0.017430      0.054468      0.055421
      2.82881      5.12723     10.88396         0.003134     -0.007567      0.003638
      2.81110      5.04688      5.48298         0.015622     -0.042007      0.020896
      1.45195      0.76273      2.71874        -0.020362     -0.023016     -0.033477
      7.25488      0.76320      2.72536         0.001296      0.001887      0.021164
     -3.03974      7.00928      8.21014        -0.028213     -0.010638     -0.015509
     -0.07026      3.63152      2.73395         0.011245      0.034817     -0.013276
     -1.33968      4.19957      8.21407        -0.016447     -0.007656      0.018856
      5.75469      1.66088      8.18772        -0.012875      0.017000     -0.003194
      4.43937      1.03755      2.68238         0.020421     -0.002157     -0.015374
      0.11596      6.72917      8.19523        -0.001890      0.017147     -0.001961
      2.84415      4.98518      2.78902        -0.018730      0.025633     -0.000770
      1.41769      2.41580      8.09327         0.011725     -0.014052      0.094770
     -2.81320      5.17791      2.73149        -0.000045     -0.011092     -0.000715
      2.84425      5.21021      8.17130         0.010122     -0.014474     -0.001310
      0.01006      1.68592      1.13570         0.007861     -0.016224      0.017743
      7.39837      0.85083      6.51696         0.020428      0.001086      0.024150
      3.06739      6.84994      4.40198         0.009148     -0.008800     -0.015700
      7.37585      0.90337      9.84588         0.011204     -0.000287     -0.009964
     -1.57848      4.28613      1.01356         0.061531      0.006912     -0.014642
      5.93458      3.35667      6.55869         0.091017     -0.010337     -0.031172
      5.95533      1.69404      4.48384        -0.027416      0.016379      0.020095
      5.90783      3.41286      9.76929         0.063338     -0.053170     -0.028042
     -2.90484      6.73465      1.03782         0.046240     -0.099947     -0.061561
      4.39729      6.08621      6.57272        -0.020243     -0.032732      0.018925
      4.49049      4.34845      4.45274        -0.022138     -0.014198     -0.056659
      4.43852      5.89807      9.84934        -0.019743      0.013618      0.009496
      2.85417      1.69184      1.04805         0.003176     -0.011674      0.009473
      1.40047      0.84438      6.37084        -0.029149     -0.452832      0.131399
     -2.99096      6.81125      4.47674         0.009663      0.011376     -0.016003
      1.39104      0.87229      9.96808        -0.005763     -0.002253     -0.010725
      1.47753      4.07480      1.14559         0.005360      0.004485     -0.016611
     -0.18507      3.24980      6.51301         0.335823     -0.010200      0.002489
     -0.08677      1.69736      4.40536        -0.410139     -0.212582     -0.175980
     -0.00318      3.27117      9.97292         0.013919      0.015273     -0.007000
     -0.13881      6.87712      1.11418         0.017045     -0.056552     -0.022588
     -1.61139      5.96726      6.52391         0.037516     -0.011362     -0.038044
     -1.56740      4.16267      4.41215         0.028540     -0.018685     -0.020906
     -1.55025      6.01203      9.72142        -0.090600     -0.007573      0.158101
      5.95621      1.73227      1.06605        -0.017525     -0.009910      0.002040
      4.20701      0.73552      6.51398        -0.016899     -0.018689     -0.016654
     -0.18637      6.81964      4.35726        -0.074937      0.062067      0.001154
      4.28840      0.84205      9.75953         0.037096      0.000456     -0.020120
      2.76801      3.29662      6.42878         0.388261     -0.022484      0.437468
      2.90640      1.50742      4.30485        -0.194367      0.277291     -0.032252
      2.70949      3.33436      9.85669        -0.000634      0.005439      0.009793
      3.07697      6.78692      1.11278         0.007797      0.006828      0.016248
      1.41514      5.93124      6.53073        -0.025271      0.014220     -0.002230
      1.40441      4.11283      4.36579        -0.177880      0.277330     -0.386713
      1.41129      5.91647      9.87050        -0.028343      0.015003      0.015297
      4.42889      4.23673      1.09939         0.018914     -0.004109      0.002353
    total drift:                               -0.007174      0.003153      0.062463

  FREE ENERGIE OF THE ION-ELECTRON SYSTEM (eV)
  free  energy   TOTEN  =      -387.94229954 eV

  energy  without entropy=     -387.94229954  energy(sigma->0) =     -387.94229954

 writing wavefunctions

 total charge

[...]

 magnetization (x)

# of ion       s       p       d       tot
    1        0.012   0.013   1.089   1.114
    2        0.005   0.007   0.172   0.183
    3        0.012   0.013   1.071   1.095
    4        0.003   0.002   0.082   0.087
    5        0.014   0.014   1.074   1.102
    6        0.011   0.014   1.092   1.117
    7        0.011   0.012   1.088   1.111
    8        0.001   0.004   0.161   0.166
    9        0.001   0.003   0.164   0.168
   10        0.006   0.010   2.091   2.107
   11        0.010   0.004   1.731   1.746
   12        0.005   0.008   1.738   1.751
   13        0.005   0.004   1.729   1.737
   14        0.014   0.005   1.716   1.735
   15        0.007   0.006   1.765   1.779
   16        0.007   0.005   1.751   1.762
   17        0.007   0.008   1.729   1.745
   18        0.008   0.010   1.718   1.736
   19        0.001   0.000   0.000   0.001
   20        0.001   0.001   0.000   0.002
   21        0.001   0.001   0.000   0.002
   22        0.001   0.001   0.000   0.002
   23        0.001   0.001   0.000   0.002
   24        0.000  -0.000   0.000   0.000
   25        0.000   0.000   0.000   0.001
   26        0.002   0.002   0.000   0.004
   27        0.001   0.001   0.000   0.001
   28        0.000   0.000   0.000   0.001
   29       -0.000   0.000   0.000   0.000
   30        0.001   0.001   0.000   0.002
   31        0.000  -0.008   0.000  -0.008
   32        0.003   0.006   0.000   0.009
   33        0.005   0.016   0.000   0.021
   34        0.002   0.014   0.000   0.016
   35        0.001  -0.015   0.000  -0.013
   36        0.003   0.035   0.000   0.038
   37        0.004   0.020   0.000   0.024
   38        0.002   0.027   0.000   0.029
   39        0.000   0.005   0.000   0.005
   40        0.003   0.014   0.000   0.016
   41        0.004  -0.034   0.000  -0.031
   42        0.002  -0.011   0.000  -0.009
   43        0.003   0.024   0.000   0.027
   44        0.003   0.072   0.000   0.075
   45        0.000   0.001   0.000   0.001
   46       -0.000  -0.032   0.000  -0.032
   47        0.005   0.027   0.000   0.032
   48        0.006   0.068   0.000   0.074
   49        0.004   0.081   0.000   0.084
   50        0.003   0.004   0.000   0.007
   51        0.004  -0.019   0.000  -0.015
   52        0.002  -0.013   0.000  -0.011
   53        0.002   0.018   0.000   0.020
   54        0.002   0.016   0.000   0.018
   55        0.003  -0.002   0.000   0.002
   56        0.005   0.034   0.000   0.039
   57        0.005   0.023   0.000   0.028
   58        0.005   0.071   0.000   0.076
   59        0.010   0.298   0.000   0.309
   60        0.006   0.067   0.000   0.074
   61        0.005   0.035   0.000   0.040
   62        0.004  -0.009   0.000  -0.005
   63        0.007   0.105   0.000   0.112
   64        0.011   0.287   0.000   0.298
   65        0.007   0.112   0.000   0.120
   66        0.003   0.027   0.000   0.030
tot          0.282   1.515  21.962  23.758