 vasp.6.4.2 20Jul23 (build Jul 20 2023 23:11:14) complex

 executed on           TETRA_NSC1 date 2024.03.08  20:13:43

 INCAR:
   SYSTEM = \"Li3FeCl6\"
   ENCUT = 400
   EDIFF = 1E-7
   LORBIT = 11
   LREAL = .FALSE.
   EDIFFG = -0.01
   NELMIN = 6
   NELM = 200
   IALGO = 48
   NSW = 0
   IBRION = -1
   ISYM = 2
   PREC = L
   ISTART = 0
   ICHARG = 2
   TIME = 0.04
   ISMEAR = 0
   SMEAR = 0.1
   ISPIN = 2
   MAGMOM = 48*0 8*4 24*0
   AMIX = 0.2
   BMIX = 0.00001
   AMIX_MAG = 0.8
   BMIX_MAG = 0.00001
   LWAVE = F
   LCHARG = T

 POTCAR:    PAW_PBE Cl 17Jan2003
 POTCAR:   PAW_PBE Fe 06Sep2000
 POTCAR:    PAW_PBE Li 17Jan2003
 POTCAR:    PAW_PBE Cl 17Jan2003
   VRHFIN =Cl: s2p5

   TITEL  = PAW_PBE Cl 17Jan2003
   POMASS =   35.453; ZVAL   =    7.000    mass and valenz
   ENMAX  =  280.000; ENMIN  =  196.854 eV
   QCUT   =   -4.392; QGAM   =    8.784    optimization parameters

   Description
     l     E      TYP  RCUT    TYP  RCUT
     0   .000     23  1.900
     0   .000     23  1.900
     1   .000     23  1.900
     1   .000     23  1.900
     2   .000     23  1.900

 POTCAR:   PAW_PBE Fe 06Sep2000
   VRHFIN =Fe:  d7 s1

   TITEL  = PAW_PBE Fe 06Sep2000
   POMASS =   55.847; ZVAL   =    8.000    mass and valenz
   ENMAX  =  267.883; ENMIN  =  200.912 eV
   QCUT   =   -4.437; QGAM   =    8.874    optimization parameters

[...]

 POTCAR:    PAW_PBE Li 17Jan2003
   VRHFIN =Li: s1p0

   TITEL  = PAW_PBE Li 17Jan2003
   POMASS =    7.010; ZVAL   =    1.000    mass and valenz
   ENMAX  =  140.000; ENMIN  =  100.000 eV
   QCUT   =   -2.932; QGAM   =    5.865    optimization parameters

   Description
     l     E      TYP  RCUT    TYP  RCUT
     0   .000     23  2.050
     0  2.000     23  2.050
     1   .000     23  2.050
     2   .000     23  2.050

  PAW_PBE Cl 17Jan2003                  :
 PAW_PBE Fe 06Sep2000                   :
  PAW_PBE Li 17Jan2003                  :

 POSCAR: Li3FeCl6
  positions in direct lattice
 exchange correlation table for  LEXCH =        8
   RHO(1)=    0.500       N(1)  =     2000
   RHO(2)=  100.500       N(2)  =     4000

 ion  position               nearest neighbor table
   1  0.158  0.994  0.129-  49 2.44  76 2.44  71 2.49  63 2.76
   2  0.006  0.164  0.129-  49 2.44  64 2.44  77 2.49  57 2.76
   3  0.836  0.842  0.129-  49 2.44  58 2.45  59 2.49  75 2.76
   4  0.842  0.006  0.871-  50 2.44  75 2.44  73 2.49  64 2.76
   5  0.994  0.836  0.871-  50 2.44  63 2.44  79 2.49  58 2.76
   6  0.164  0.158  0.871-  50 2.44  57 2.45  61 2.49  76 2.76
   7  0.164  0.006  0.629-  50 2.44  66 2.44  61 2.49  80 2.76
   8  0.994  0.158  0.629-  50 2.44  60 2.44  73 2.49  68 2.76
   9  0.842  0.836  0.629-  50 2.44  78 2.45  79 2.49  62 2.76
  10  0.836  0.994  0.371-  49 2.44  68 2.44  59 2.49  78 2.76
  11  0.006  0.842  0.371-  49 2.44  62 2.44  71 2.49  66 2.76
  12  0.158  0.164  0.371-  49 2.44  80 2.45  77 2.49  60 2.76
  13  0.158  0.494  0.129-  51 2.44  70 2.44  77 2.49  57 2.76
  14  0.006  0.664  0.129-  51 2.44  58 2.44  71 2.49  63 2.76
  15  0.836  0.342  0.129-  51 2.44  64 2.45  65 2.49  69 2.76
  16  0.842  0.506  0.871-  52 2.44  69 2.44  79 2.49  58 2.76
  17  0.994  0.336  0.871-  52 2.44  57 2.44  73 2.49  64 2.76
  18  0.164  0.658  0.871-  52 2.44  63 2.45  67 2.49  70 2.76
  19  0.164  0.506  0.629-  52 2.44  60 2.44  67 2.49  74 2.76
  20  0.994  0.658  0.629-  52 2.44  66 2.44  79 2.49  62 2.76
  21  0.842  0.336  0.629-  52 2.44  72 2.45  73 2.49  68 2.76
  22  0.836  0.494  0.371-  51 2.44  62 2.44  65 2.49  72 2.76
  23  0.006  0.342  0.371-  51 2.44  68 2.44  77 2.49  60 2.76
  24  0.158  0.664  0.371-  51 2.44  74 2.45  71 2.49  66 2.76
  25  0.658  0.994  0.129-  53 2.44  64 2.44  59 2.49  75 2.76
  26  0.506  0.164  0.129-  53 2.44  76 2.44  65 2.49  69 2.76
  27  0.336  0.842  0.129-  53 2.44  70 2.45  71 2.49  63 2.76
  28  0.342  0.006  0.871-  54 2.44  63 2.44  61 2.49  76 2.76
  29  0.494  0.836  0.871-  54 2.44  75 2.44  67 2.49  70 2.76
  30  0.664  0.158  0.871-  54 2.44  69 2.45  73 2.49  64 2.76
  31  0.664  0.006  0.629-  54 2.44  78 2.44  73 2.49  68 2.76
  32  0.494  0.158  0.629-  54 2.44  72 2.44  61 2.49  80 2.76
  33  0.342  0.836  0.629-  54 2.44  66 2.45  67 2.49  74 2.76
  34  0.336  0.994  0.371-  53 2.44  80 2.44  71 2.49  66 2.76
  35  0.506  0.842  0.371-  53 2.44  74 2.44  59 2.49  78 2.76
  36  0.658  0.164  0.371-  53 2.44  68 2.45  65 2.49  72 2.76
  37  0.658  0.494  0.129-  55 2.44  58 2.44  65 2.49  69 2.76
  38  0.506  0.664  0.129-  55 2.44  70 2.44  59 2.49  75 2.76
  39  0.336  0.342  0.129-  55 2.44  76 2.45  77 2.49  57 2.76
  40  0.342  0.506  0.871-  56 2.44  57 2.44  67 2.49  70 2.76
  41  0.494  0.336  0.871-  56 2.44  69 2.44  61 2.49  76 2.76
  42  0.664  0.658  0.871-  56 2.44  75 2.45  79 2.49  58 2.76
  43  0.664  0.506  0.629-  56 2.44  72 2.44  79 2.49  62 2.76
  44  0.494  0.658  0.629-  56 2.44  78 2.44  67 2.49  74 2.76
  45  0.342  0.336  0.629-  56 2.44  60 2.45  61 2.49  80 2.76
  46  0.336  0.494  0.371-  55 2.44  74 2.44  77 2.49  60 2.76
  47  0.506  0.342  0.371-  55 2.44  80 2.44  65 2.49  72 2.76
  48  0.658  0.664  0.371-  55 2.44  62 2.45  59 2.49  78 2.76
  49  1.000  0.000  0.250-  12 2.44   3 2.44   2 2.44  10 2.44   1 2.44  11 2.44
  50  0.000  1.000  0.750-   6 2.44   9 2.44   7 2.44   5 2.44   8 2.44   4 2.44
  51  1.000  0.500  0.250-  15 2.44  24 2.44  22 2.44  14 2.44  13 2.44  23 2.44
  52  0.000  0.500  0.750-  18 2.44  21 2.44  19 2.44  17 2.44  16 2.44  20 2.44
  53  0.500  0.000  0.250-  27 2.44  36 2.44  34 2.44  26 2.44  25 2.44  35 2.44
  54  0.500  1.000  0.750-  30 2.44  33 2.44  31 2.44  29 2.44  28 2.44  32 2.44
  55  0.500  0.500  0.250-  39 2.44  48 2.44  46 2.44  38 2.44  47 2.44  37 2.44
  56  0.500  0.500  0.750-  45 2.44  42 2.44  41 2.44  43 2.44  40 2.44  44 2.44
  57  0.167  0.333  0.968-  40 2.44  17 2.44   6 2.45   2 2.76  39 2.76  13 2.76  77 3.21
  58  0.833  0.667  0.032-  37 2.44  14 2.44   3 2.45   5 2.76  42 2.76  16 2.76  79 3.21
  59  0.667  0.833  0.250-  35 2.49  25 2.49  10 2.49  38 2.49   3 2.49  48 2.49  75 3.21  78 3.21

  60  0.167  0.333  0.532-   8 2.44  19 2.44  45 2.45  46 2.76  12 2.76  23 2.76  77 3.21
  61  0.333  0.167  0.750-  32 2.49  28 2.49   7 2.49  41 2.49   6 2.49  45 2.49  76 3.21  80 3.21

[...]

  80  0.333  0.167  0.468-  47 2.44  34 2.44  12 2.45   7 2.76  45 2.76  32 2.76  61 3.21

  LATTYP: Found a base centered orthorhombic cell.
 ALAT       =    12.5134231864
 B/A-ratio  =     1.7329638574
 C/A-ratio  =     0.9111292387

  Lattice vectors:

 A1 = (  12.5183705208,  -0.0028563449,   0.0000009508)
 A2 = (  -6.2616589276,  10.8397987126,   0.0000009508)
 A3 = (  -0.0000009334,  -0.0000016167,  11.4013457418)

Analysis of symmetry for initial positions (statically):
 Subroutine PRICEL returns following result:

[...]

   4 primitive cells build up your supercell.

 Routine SETGRP: Setting up the symmetry group for a
 base centered orthorhombic supercell.

 Subroutine GETGRP returns: Found  4 space group operations
 (whereof  2 operations were pure point group operations)
 out of a pool of  8 trial point group operations.

The static configuration has the point symmetry S_2 .
 The point group associated with its full space group is C_2h.

Analysis of symmetry for dynamics (positions and initial velocities):
 Subroutine PRICEL returns following result:

[...]

The dynamic configuration has the point symmetry S_2 .
 The point group associated with its full space group is C_2h.

Analysis of structural, dynamic, and magnetic symmetry:
 Subroutine PRICEL returns following result:

  LATTYP: Found a base centered orthorhombic cell.
 ALAT       =     6.2567115932
 B/A-ratio  =     1.7329638574
 C/A-ratio  =     1.8222584775

  Lattice vectors:

 A1 = (   6.2591852604,  -0.0014281724,   0.0000004754)
 A2 = (  -3.1308294638,   5.4198993563,   0.0000004754)
 A3 = (  -0.0000009334,  -0.0000016167,  11.4013457418)

   4 primitive cells build up your supercell.

 Routine SETGRP: Setting up the symmetry group for a
 base centered orthorhombic supercell.

 Subroutine GETGRP returns: Found  4 space group operations
 (whereof  2 operations were pure point group operations)
 out of a pool of  8 trial point group operations.

The overall configuration has the point symmetry S_2 .
 The point group associated with its full space group is C_2h.

 Subroutine INISYM returns: Found  4 space group operations
 (whereof  2 operations are pure point group operations),
 and found     4 'primitive' translations

                                     Primitive cell

  volume of cell :     386.7300

  direct lattice vectors                    reciprocal lattice vectors
     6.259185260 -0.001428172  0.000000475     0.159786263  0.092301260  0.000000026
    -3.130829464  5.419899356  0.000000475     0.000042105  0.184529593  0.000000026
    -0.000000933 -0.000001617 11.401345742    -0.000000007 -0.000000012  0.087708944

  length of vectors
     6.259185423  6.259185423 11.401345742     0.184529598  0.184529598  0.087708944

  position of ions in fractional coordinates (direct lattice)
     0.315779090  0.988340279  0.129076814
     0.011683607  0.327441425  0.129042654
     0.672459906  0.684160953  0.129123007
     0.684220910  0.011659721  0.870923186
     0.988316393  0.672558517  0.870957346
     0.327540094  0.315838989  0.870876993
     0.327441425  0.011683607  0.629042654
     0.988340279  0.315779090  0.629076814
     0.684161011  0.672459848  0.629123007
     0.672558575  0.988316393  0.370957346
     0.011659721  0.684220852  0.370923186
     0.315838989  0.327540094  0.370876993
     0.999990939  0.000009061  0.250000000
     0.000009061  0.999990939  0.750000000
     0.333284951  0.666610346  0.968373579
     0.666715049  0.333389596  0.031626421
     0.333248201  0.666751741  0.250000000
     0.333389596  0.666714991  0.531626421
     0.666751799  0.333248201  0.750000000
     0.666610404  0.333284951  0.468373579

  ion indices of the primitive-cell ions
   primitive index   ion index
                 1           1
                 2           2
                 3          27
                 4          28
                 5           5
                 6           6
                 7           7
                 8           8
                 9          33
                10          34
                11          11
                12          12
                13          49
                14          50
                15          63
                16          76
                17          71
                18          66
                19          61
                20          80

 KPOINTS: Automatic mesh

Automatic generation of k-mesh.
 Grid dimensions read from file:
 generate k-points for:    1    1    1

 Generating k-lattice:

  Cartesian coordinates                     Fractional coordinates (reciprocal lattice)
     0.079893131  0.046150630  0.000000013     1.000000000  0.000000000  0.000000000
     0.000021052  0.092264796  0.000000013    -0.000000000  1.000000000 -0.000000000
    -0.000000007 -0.000000012  0.087708944     0.000000000 -0.000000000  1.000000000

  Length of vectors
[...]
   -.446E+02 -.639E+02 -.651E+02   0.452E+02 0.648E+02 0.658E+02   -.652E+00 -.102E+01 -.814E+00   -.660E-05 0.231E-04 -.736E-04
   -.777E+02 -.667E+01 0.650E+02   0.787E+02 0.669E+01 -.658E+02   -.121E+01 -.539E-01 0.815E+00   0.140E-04 -.138E-04 0.739E-04
   0.447E+02 -.639E+02 0.650E+02   -.452E+02 0.648E+02 -.658E+02   0.651E+00 -.102E+01 0.816E+00   0.785E-05 0.181E-04 0.765E-04
   0.331E+02 0.706E+02 0.651E+02   -.336E+02 -.715E+02 -.658E+02   0.557E+00 0.107E+01 0.814E+00   -.233E-04 -.581E-05 0.736E-04
   0.777E+02 0.667E+01 -.650E+02   -.787E+02 -.669E+01 0.658E+02   0.121E+01 0.539E-01 -.815E+00   -.140E-04 0.138E-04 -.739E-04
   -.447E+02 0.639E+02 -.650E+02   0.452E+02 -.648E+02 0.658E+02   -.651E+00 0.102E+01 -.816E+00   -.785E-05 -.181E-04 -.765E-04
   -.331E+02 -.706E+02 -.651E+02   0.336E+02 0.715E+02 0.658E+02   -.557E+00 -.107E+01 -.814E+00   0.233E-04 0.581E-05 -.736E-04
   -.777E+02 0.673E+01 0.650E+02   0.787E+02 -.675E+01 -.658E+02   -.120E+01 0.559E-01 0.816E+00   0.117E-04 0.158E-04 0.765E-04
   0.331E+02 -.706E+02 0.650E+02   -.336E+02 0.715E+02 -.658E+02   0.556E+00 -.107E+01 0.815E+00   -.190E-04 0.518E-05 0.739E-04
   0.446E+02 0.639E+02 0.651E+02   -.452E+02 -.648E+02 -.658E+02   0.652E+00 0.102E+01 0.814E+00   0.660E-05 -.231E-04 0.736E-04
   0.777E+02 -.673E+01 -.650E+02   -.787E+02 0.675E+01 0.658E+02   0.120E+01 -.559E-01 -.816E+00   -.117E-04 -.158E-04 -.765E-04
   -.331E+02 0.706E+02 -.650E+02   0.336E+02 -.715E+02 0.658E+02   -.556E+00 0.107E+01 -.815E+00   0.190E-04 -.518E-05 -.739E-04
   -.446E+02 -.639E+02 -.651E+02   0.452E+02 0.648E+02 0.658E+02   -.652E+00 -.102E+01 -.814E+00   -.660E-05 0.231E-04 -.736E-04
   -.777E+02 -.667E+01 0.650E+02   0.787E+02 0.669E+01 -.658E+02   -.121E+01 -.539E-01 0.815E+00   0.140E-04 -.138E-04 0.739E-04
   0.447E+02 -.639E+02 0.650E+02   -.452E+02 0.648E+02 -.658E+02   0.651E+00 -.102E+01 0.816E+00   0.785E-05 0.181E-04 0.765E-04
   0.331E+02 0.706E+02 0.651E+02   -.336E+02 -.715E+02 -.658E+02   0.557E+00 0.107E+01 0.814E+00   -.233E-04 -.581E-05 0.736E-04
   0.777E+02 0.667E+01 -.650E+02   -.787E+02 -.669E+01 0.658E+02   0.121E+01 0.539E-01 -.815E+00   -.140E-04 0.138E-04 -.739E-04
   -.447E+02 0.639E+02 -.650E+02   0.452E+02 -.648E+02 0.658E+02   -.651E+00 0.102E+01 -.816E+00   -.785E-05 -.181E-04 -.765E-04
   -.331E+02 -.706E+02 -.651E+02   0.336E+02 0.715E+02 0.658E+02   -.557E+00 -.107E+01 -.814E+00   0.233E-04 0.581E-05 -.736E-04
   -.777E+02 0.673E+01 0.650E+02   0.787E+02 -.675E+01 -.658E+02   -.120E+01 0.559E-01 0.816E+00   0.117E-04 0.158E-04 0.765E-04
   0.331E+02 -.706E+02 0.650E+02   -.336E+02 0.715E+02 -.658E+02   0.556E+00 -.107E+01 0.815E+00   -.190E-04 0.518E-05 0.739E-04
   0.446E+02 0.639E+02 0.651E+02   -.452E+02 -.648E+02 -.658E+02   0.652E+00 0.102E+01 0.814E+00   0.660E-05 -.231E-04 0.736E-04
   0.777E+02 -.673E+01 -.650E+02   -.787E+02 0.675E+01 0.658E+02   0.120E+01 -.559E-01 -.816E+00   -.117E-04 -.158E-04 -.765E-04
   -.331E+02 0.706E+02 -.650E+02   0.336E+02 -.715E+02 0.658E+02   -.556E+00 0.107E+01 -.815E+00   0.190E-04 -.518E-05 -.739E-04
   -.446E+02 -.639E+02 -.651E+02   0.452E+02 0.648E+02 0.658E+02   -.652E+00 -.102E+01 -.814E+00   -.660E-05 0.231E-04 -.736E-04
   -.995E-03 0.572E-03 0.350E-05   0.240E-02 -.139E-02 0.260E-04   -.586E-03 0.338E-03 0.613E-20   -.198E-05 0.114E-05 -.172E-10
   0.993E-03 -.575E-03 0.350E-05   -.241E-02 0.138E-02 0.260E-04   0.586E-03 -.338E-03 -.608E-20   0.198E-05 -.114E-05 -.171E-10
   -.993E-03 0.573E-03 -.772E-11   0.241E-02 -.139E-02 -.144E-13   -.586E-03 0.338E-03 0.620E-20   -.198E-05 0.114E-05 0.298E-13
   0.995E-03 -.574E-03 0.331E-12   -.240E-02 0.138E-02 0.306E-13   0.586E-03 -.338E-03 -.608E-20   0.198E-05 -.114E-05 0.469E-13
   -.995E-03 0.574E-03 0.179E-11   0.240E-02 -.138E-02 0.444E-15   -.586E-03 0.338E-03 0.624E-20   -.198E-05 0.114E-05 -.906E-14
   0.993E-03 -.573E-03 -.167E-11   -.241E-02 0.139E-02 -.119E-12   0.586E-03 -.338E-03 -.623E-20   0.198E-05 -.114E-05 0.227E-13
   -.993E-03 0.575E-03 -.350E-05   0.241E-02 -.138E-02 -.260E-04   -.586E-03 0.338E-03 0.600E-20   -.198E-05 0.114E-05 0.172E-10
   0.995E-03 -.572E-03 -.350E-05   -.240E-02 0.139E-02 -.260E-04   0.586E-03 -.338E-03 -.600E-20   0.198E-05 -.114E-05 0.172E-10
   0.407E-02 -.242E-02 -.282E+01   -.390E-02 0.291E-02 0.228E+01   -.105E-03 -.706E-03 0.540E+00   0.849E-07 0.216E-07 -.596E-06
   -.408E-02 0.243E-02 0.282E+01   0.391E-02 -.291E-02 -.228E+01   0.105E-03 0.706E-03 -.540E+00   -.849E-07 -.216E-07 0.596E-06
   0.881E-02 -.509E-02 0.132E-12   -.948E-02 0.548E-02 -.175E-12   0.966E-03 -.558E-03 -.103E-19   0.767E-07 -.443E-07 -.125E-14
   0.413E-02 -.232E-02 0.282E+01   -.447E-02 0.193E-02 -.228E+01   0.559E-03 0.444E-03 -.540E+00   0.238E-07 -.843E-07 0.596E-06
[...]
   -.881E-02 0.509E-02 0.570E-06   0.947E-02 -.548E-02 0.418E-05   -.966E-03 0.558E-03 0.102E-19   -.767E-07 0.443E-07 -.740E-12
   -.414E-02 0.232E-02 -.282E+01   0.448E-02 -.192E-02 0.228E+01   -.559E-03 -.444E-03 0.540E+00   -.238E-07 0.843E-07 -.596E-06
   0.408E-02 -.242E-02 -.282E+01   -.391E-02 0.290E-02 0.228E+01   -.105E-03 -.706E-03 0.540E+00   0.849E-07 0.216E-07 -.596E-06
   -.407E-02 0.242E-02 0.282E+01   0.390E-02 -.292E-02 -.228E+01   0.105E-03 0.706E-03 -.540E+00   -.849E-07 -.216E-07 0.596E-06
   0.881E-02 -.509E-02 -.570E-06   -.947E-02 0.548E-02 -.418E-05   0.966E-03 -.558E-03 -.103E-19   0.767E-07 -.443E-07 0.741E-12
   0.414E-02 -.232E-02 0.282E+01   -.448E-02 0.192E-02 -.228E+01   0.559E-03 0.444E-03 -.540E+00   0.238E-07 -.843E-07 0.596E-06
   -.881E-02 0.508E-02 -.570E-06   0.949E-02 -.546E-02 -.418E-05   -.966E-03 0.558E-03 0.103E-19   -.767E-07 0.443E-07 0.744E-12
   -.414E-02 0.232E-02 -.282E+01   0.447E-02 -.194E-02 0.228E+01   -.559E-03 -.444E-03 0.540E+00   -.238E-07 0.843E-07 -.596E-06
   0.408E-02 -.243E-02 -.282E+01   -.391E-02 0.291E-02 0.228E+01   -.105E-03 -.706E-03 0.540E+00   0.849E-07 0.216E-07 -.596E-06
   -.407E-02 0.242E-02 0.282E+01   0.390E-02 -.291E-02 -.228E+01   0.105E-03 0.706E-03 -.540E+00   -.849E-07 -.216E-07 0.596E-06
   0.880E-02 -.508E-02 0.378E-13   -.947E-02 0.547E-02 -.171E-12   0.966E-03 -.558E-03 -.104E-19   0.767E-07 -.443E-07 -.135E-14
   0.414E-02 -.232E-02 0.282E+01   -.448E-02 0.193E-02 -.228E+01   0.559E-03 0.444E-03 -.540E+00   0.238E-07 -.843E-07 0.596E-06
   -.881E-02 0.509E-02 -.195E-12   0.948E-02 -.548E-02 0.184E-12   -.966E-03 0.558E-03 0.103E-19   -.767E-07 0.443E-07 0.195E-14
   -.413E-02 0.232E-02 -.282E+01   0.447E-02 -.193E-02 0.228E+01   -.559E-03 -.444E-03 0.540E+00   -.238E-07 0.843E-07 -.596E-06
   0.981E-09 0.197E-08 -.127E-11   -.200E-12 -.265E-12 0.295E-12   -.266E-14 0.446E-15 0.000E+00   -.422E-12 0.367E-12 0.666E-12

 POSITION                                       TOTAL-FORCE (eV/Angst)
     -4.24863     10.77615      1.47165        -0.175103     -0.032971      0.083747
     -0.95203      1.77468      1.47126         0.116627     -0.134490      0.084089
      5.19542      9.12559      1.47218         0.058781      0.168965      0.083460
     10.50534      0.06079      9.92970         0.175103      0.032971     -0.083747
      7.20874      9.06226      9.93009        -0.116627      0.134490     -0.084089
      1.06130      1.71135      9.92917        -0.058781     -0.168965     -0.083460
      2.01294      0.06286      7.17193        -0.174785      0.033757      0.084089
     11.45674      1.70865      7.17232         0.058997     -0.168129      0.083747
      5.30529      9.06216      7.17285         0.116938      0.135388      0.083460
      4.24377     10.77409      4.22941         0.174785     -0.033757     -0.084089
     -5.20003      9.12829      4.22902        -0.058997      0.168129     -0.083747
      0.95142      1.77478      4.22850        -0.116938     -0.135388     -0.083460
     -1.11781      5.35625      1.47165        -0.175103     -0.032971      0.083747
     -4.08286      7.19458      1.47126         0.116627     -0.134490      0.084089
      8.32624      3.70570      1.47218         0.058781      0.168965      0.083460
      7.37452      5.48069      9.92970         0.175103      0.032971     -0.083747
     10.33957      3.64236      9.93009        -0.116627      0.134490     -0.084089
     -2.06953      7.13125      9.92917        -0.058781     -0.168965     -0.083460
     -1.11789      5.48275      7.17193        -0.174785      0.033757      0.084089
      8.32591      7.12855      7.17232         0.058997     -0.168129      0.083747
      8.43612      3.64226      7.17285         0.116938      0.135388      0.083460
      7.37460      5.35419      4.22941         0.174785     -0.033757     -0.084089
     -2.06920      3.70839      4.22902        -0.058997      0.168129     -0.083747
     -2.17941      7.19468      4.22850        -0.116938     -0.135388     -0.083460
      2.01055     10.77472      1.47165        -0.175103     -0.032971      0.083747
      5.30715      1.77325      1.47126         0.116627     -0.134490      0.084089
     -1.06377      9.12702      1.47218         0.058781      0.168965      0.083460
      4.24616      0.06222      9.92970         0.175103      0.032971     -0.083747
      0.94956      9.06369      9.93009        -0.116627      0.134490     -0.084089
      7.32048      1.70992      9.92917        -0.058781     -0.168965     -0.083460
      8.27212      0.06143      7.17193        -0.174785      0.033757      0.084089
      5.19755      1.71008      7.17232         0.058997     -0.168129      0.083747
     -0.95390      9.06359      7.17285         0.116938      0.135388      0.083460
     -2.01541     10.77551      4.22941         0.174785     -0.033757     -0.084089
      1.05916      9.12686      4.22902        -0.058997      0.168129     -0.083747
      7.21061      1.77335      4.22850        -0.116938     -0.135388     -0.083460
      5.14138      5.35483      1.47165        -0.175103     -0.032971      0.083747
      2.17632      7.19315      1.47126         0.116627     -0.134490      0.084089
      2.06706      3.70712      1.47218         0.058781      0.168965      0.083460
      1.11533      5.48212      9.92970         0.175103      0.032971     -0.083747
      4.08039      3.64379      9.93009        -0.116627      0.134490     -0.084089
      4.18965      7.12982      9.92917        -0.058781     -0.168965     -0.083460
      5.14129      5.48133      7.17193        -0.174785      0.033757      0.084089
      2.06672      7.12998      7.17232         0.058997     -0.168129      0.083747
      2.17693      3.64369      7.17285         0.116938      0.135388      0.083460
      1.11542      5.35561      4.22941         0.174785     -0.033757     -0.084089
      4.18999      3.70696      4.22902        -0.058997      0.168129     -0.083747
      4.07978      7.19325      4.22850        -0.116938     -0.135388     -0.083460
     12.51829     -0.00281      2.85034         0.000822     -0.000475     -0.000000
     -6.26157     10.83975      8.55101        -0.000822      0.000475     -0.000000
      9.38746      5.41709      2.85034         0.000822     -0.000475     -0.000000
     -3.13075      5.41985      8.55101        -0.000822      0.000475     -0.000000
      6.25910     -0.00138      2.85034         0.000822     -0.000475     -0.000000
     -0.00239     10.83832      8.55101        -0.000822      0.000475     -0.000000
      3.12827      5.41852      2.85034         0.000822     -0.000475     -0.000000
      3.12844      5.41842      8.55101        -0.000822      0.000475     -0.000000
     -0.00095      3.61248     11.04076         0.000062     -0.000218     -0.000501
      6.25766      7.22446      0.36059        -0.000062      0.000218      0.000501
      3.12673      9.03172      2.85034         0.000294     -0.000170     -0.000000
     -0.00062      3.61305      6.06126         0.000220      0.000055      0.000501
[...]
     -3.13145      9.03295      6.06126         0.000220      0.000055      0.000501
     -0.00085      7.22512      8.55101        -0.000294      0.000170     -0.000000
      9.38816      1.80399      5.34009        -0.000220     -0.000055     -0.000501
      6.25823      3.61106     11.04076         0.000062     -0.000218     -0.000501
     -0.00152      7.22589      0.36058        -0.000062      0.000218      0.000501
     -3.13245      9.03315      2.85034         0.000294     -0.000170     -0.000000
      6.25856      3.61162      6.06126         0.000220      0.000055      0.000501
      9.38916      1.80379      8.55101        -0.000294      0.000170     -0.000000
     -0.00185      7.22532      5.34009        -0.000220     -0.000055     -0.000501
      3.12740      9.03095     11.04076         0.000062     -0.000218     -0.000501
      3.12931      1.80599      0.36058        -0.000062      0.000218      0.000501
     -0.00162      3.61325      2.85034         0.000294     -0.000170     -0.000000
      3.12773      9.03152      6.06126         0.000220      0.000055      0.000501
      6.25833      7.22369      8.55101        -0.000294      0.000170     -0.000000
      3.12898      1.80542      5.34009        -0.000220     -0.000055     -0.000501
    total drift:                                0.000000      0.000000     -0.000000

  FREE ENERGIE OF THE ION-ELECTRON SYSTEM (eV)
  free  energy   TOTEN  =      -306.47295413 eV

  energy  without entropy=     -306.44971471  energy(sigma->0) =     -306.46133442

 total charge

[...]

 magnetization (x)

# of ion       s       p       d       tot
    1        0.006   0.121   0.000   0.127
    2        0.006   0.121   0.000   0.127
    3        0.006   0.121   0.000   0.127
    4        0.006   0.121   0.000   0.127
    5        0.006   0.121   0.000   0.127
    6        0.006   0.121   0.000   0.127
    7        0.006   0.121   0.000   0.127
    8        0.006   0.121   0.000   0.127
    9        0.006   0.121   0.000   0.127
   10        0.006   0.121   0.000   0.127
   11        0.006   0.121   0.000   0.127
   12        0.006   0.121   0.000   0.127
   13        0.006   0.121   0.000   0.127
   14        0.006   0.121   0.000   0.127
   15        0.006   0.121   0.000   0.127
   16        0.006   0.121   0.000   0.127
   17        0.006   0.121   0.000   0.127
   18        0.006   0.121   0.000   0.127
   19        0.006   0.121   0.000   0.127
   20        0.006   0.121   0.000   0.127
   21        0.006   0.121   0.000   0.127
   22        0.006   0.121   0.000   0.127
   23        0.006   0.121   0.000   0.127
   24        0.006   0.121   0.000   0.127
   25        0.006   0.121   0.000   0.127
   26        0.006   0.121   0.000   0.127
   27        0.006   0.121   0.000   0.127
   28        0.006   0.121   0.000   0.127
   29        0.006   0.121   0.000   0.127
   30        0.006   0.121   0.000   0.127
   31        0.006   0.121   0.000   0.127
   32        0.006   0.121   0.000   0.127
   33        0.006   0.121   0.000   0.127
   34        0.006   0.121   0.000   0.127
   35        0.006   0.121   0.000   0.127
   36        0.006   0.121   0.000   0.127
   37        0.006   0.121   0.000   0.127
   38        0.006   0.121   0.000   0.127
   39        0.006   0.121   0.000   0.127
   40        0.006   0.121   0.000   0.127
   41        0.006   0.121   0.000   0.127
   42        0.006   0.121   0.000   0.127
   43        0.006   0.121   0.000   0.127
   44        0.006   0.121   0.000   0.127
   45        0.006   0.121   0.000   0.127
   46        0.006   0.121   0.000   0.127
   47        0.006   0.121   0.000   0.127
   48        0.006   0.121   0.000   0.127
   49        0.019   0.016   3.842   3.877
   50        0.019   0.016   3.842   3.877
   51        0.019   0.016   3.842   3.877
   52        0.019   0.016   3.842   3.877
   53        0.019   0.016   3.842   3.877
   54        0.019   0.016   3.842   3.877
   55        0.019   0.016   3.842   3.877
   56        0.019   0.016   3.842   3.877
   57        0.002   0.004   0.000   0.006
   58        0.002   0.004   0.000   0.006
   59        0.001   0.001   0.000   0.003
   60        0.002   0.004   0.000   0.006
[...]
   66        0.002   0.004   0.000   0.006
   67        0.001   0.001   0.000   0.003
   68        0.002   0.004   0.000   0.006
   69        0.002   0.004   0.000   0.006
   70        0.002   0.004   0.000   0.006
   71        0.001   0.001   0.000   0.003
   72        0.002   0.004   0.000   0.006
   73        0.001   0.001   0.000   0.003
   74        0.002   0.004   0.000   0.006
   75        0.002   0.004   0.000   0.006
   76        0.002   0.004   0.000   0.006
   77        0.001   0.001   0.000   0.003
   78        0.002   0.004   0.000   0.006
   79        0.001   0.001   0.000   0.003
   80        0.002   0.004   0.000   0.006
tot          0.472   6.008  30.734  37.215